sing20180215.00
TTAA 65001 48698
99013 25618 04503 00134 24216 00507 92815 21248 01018
85546 17645 31516 70181 08429 26513 50589 06169 09009
40761 16559 07512 30971 31757 12530 25097 42150 12544
20244 53956 11559 15423 65958 09531 10657 83748 10019
88999
77175 10073 42242=
TTCC 65005 48698
70860 74965 28524 50056 73167 28024 30359 ///// /////
88913 86950 10535
77999=
TTDD 6500/ 48698
11913 86950 22861 84560 33847 82964 44824 73769 55808
72175 66645 76564 77567 70370 88471 73767 99374 68973
11338 69172
21212 11960 12026 22907 10036 33894 09034 44857 10033
55841 11520 66821 17510 77818 18510 88785 22023 99751
23526 11736 25528 22705 28525 33642 26021 44610 26515
55597 27516 66570 25026 77503 28024 88456 27023 99440
27518 11427 30013 22416 34014 33405 34510 44399 01506
55381 06020 66368 08027 77338 09536=
